SCIP Status        : solving was interrupted [time limit reached]
Total Time         :    3600.01
  solving          :    3600.00
  presolving       :       0.08 (included in solving)
  reading          :       0.00
  copying          :       0.06 (17 #copies) (minimal 0.00, maximal 0.00, average 0.00)
Original Problem   :
  Problem name     : feedtray
  Variables        : 97 (7 binary, 0 integer, 0 implicit integer, 90 continuous)
  Constraints      : 91 initial, 91 maximal
  Objective        : minimize, 2 non-zeros (abs.min = 1, abs.max = 50)
Presolved Problem  :
  Problem name     : t_feedtray
  Variables        : 690 (7 binary, 0 integer, 0 implicit integer, 683 continuous)
  Constraints      : 81 initial, 87 maximal
  Objective        : minimize, 2 non-zeros (abs.min = 1, abs.max = 50)
  Nonzeros         : 424 constraint, 36 clique table
Presolvers         :   ExecTime  SetupTime  Calls  FixedVars   AggrVars   ChgTypes  ChgBounds   AddHoles    DelCons    AddCons   ChgSides   ChgCoefs
  boundshift       :       0.00       0.00      0          0          0          0          0          0          0          0          0          0
  convertinttobin  :       0.00       0.00      0          0          0          0          0          0          0          0          0          0
  domcol           :       0.00       0.00      2          0          0          0          0          0          0          0          0          0
  dualagg          :       0.00       0.00      0          0          0          0          0          0          0          0          0          0
  dualcomp         :       0.00       0.00      2          0          0          0          0          0          0          0          0          0
  dualinfer        :       0.00       0.00      0          0          0          0          0          0          0          0          0          0
  dualsparsify     :       0.00       0.00      1          0          0          0          0          0          0          0          0          0
  gateextraction   :       0.00       0.00      0          0          0          0          0          0          0          0          0          0
  implics          :       0.00       0.00      4          0          0          0          0          0          0          0          0          0
  inttobinary      :       0.00       0.00      0          0          0          0          0          0          0          0          0          0
  qpkktref         :       0.00       0.00      0          0          0          0          0          0          0          0          0          0
  redvub           :       0.00       0.00      0          0          0          0          0          0          0          0          0          0
  sparsify         :       0.00       0.00      1          0          0          0          0          0          0          0          0          0
  stuffing         :       0.00       0.00      0          0          0          0          0          0          0          0          0          0
  trivial          :       0.00       0.00     14          0          0          0          0          0          0          0          0          0
  tworowbnd        :       0.00       0.00      0          0          0          0          0          0          0          0          0          0
  dualfix          :       0.00       0.00     14          0          0          0          0          0          0          0          0          0
  genvbounds       :       0.00       0.00      0          0          0          0          0          0          0          0          0          0
  probing          :       0.00       0.00      2          0          7          0         13          0          0          0          0          0
  pseudoobj        :       0.00       0.00      0          0          0          0          0          0          0          0          0          0
  symmetry         :       0.00       0.00      1          0          0          0          0          0          0          0          0          0
  vbounds          :       0.00       0.00      1          0          0          0          0          0          0          0          0          0
  varbound         :       0.00       0.00      3          0          0          0          0          0          7          0          0          0
  setppc           :       0.00       0.00     11          0          0          0          0          0          1          0          0          0
  linear           :       0.00       0.00     18          0          1          0         35          0          2          0          0          0
  nonlinear        :       0.08       0.00     20          0          0          0         72          0          0          0          0          0
  benders          :       0.00       0.00      0          0          0          0          0          0          0          0          0          0
  components       :       0.00       0.00      1          0          0          0          0          0          0          0          0          0
  root node        :          -          -      -          1          -          -        445          -          -          -          -          -
Constraints        :     Number  MaxNumber  #Separate #Propagate    #EnfoLP    #EnfoRelax  #EnfoPS    #Check   #ResProp    Cutoffs    DomReds       Cuts    Applied      Conss   Children
  benderslp        :          0          0          0          0      90748          0        106       1225          0          0          0          0          0          0          0
  integral         :          0          0          0          0      90748          0          0       1225          0          0        494          0          0          1        104
  setppc           :          1          1         28       2579          0          0         16       1220          0          3         96          0          0          0          0
  linear           :         18+        27         28      65975          0          0         13       1201          0        161      50721          0          0          0          0
  nonlinear        :         62         62     118968      65814      90679          0        106       1181          0        576    1212958    1992518    1368422          0      28182
  benders          :          0          0          0          0          0          0        106         30          0          0          0          0          0          0          0
  countsols        :          0          0          0          0          0          0        106         30          0          0          0          0          0          0          0
  components       :          0          0          0          0          0          0          0          0          0          0          0          0          0          0          0
Constraint Timings :  TotalTime  SetupTime   Separate  Propagate     EnfoLP     EnfoPS     EnfoRelax   Check    ResProp    SB-Prop
  benderslp        :       0.03       0.00       0.00       0.00       0.03       0.00       0.00       0.00       0.00       0.00
  integral         :       0.31       0.00       0.00       0.00       0.31       0.00       0.00       0.00       0.00       0.00
  setppc           :       0.00       0.00       0.00       0.00       0.00       0.00       0.00       0.00       0.00       0.00
  linear           :       0.35       0.00       0.00       0.34       0.00       0.00       0.00       0.00       0.00       0.00
  nonlinear        :     902.39       0.00     487.88      13.51     400.83       0.03       0.00       0.09       0.00       0.05
  benders          :       0.00       0.00       0.00       0.00       0.00       0.00       0.00       0.00       0.00       0.00
  countsols        :       0.00       0.00       0.00       0.00       0.00       0.00       0.00       0.00       0.00       0.00
  components       :       0.01       0.00       0.00       0.01       0.00       0.00       0.00       0.00       0.00       0.00
Propagators        : #Propagate   #ResProp    Cutoffs    DomReds
  dualfix          :          7          0          0          0
  genvbounds       :      22674          0         33      37631
  nlobbt           :          0          0          0          0
  obbt             :          4          0          0         39
  probing          :          0          0          0          0
  pseudoobj        :     156426          0          0          2
  redcost          :       9991          0          0          0
  rootredcost      :          3          0          0          0
  symmetry         :          0          0          0          0
  vbounds          :        676          0          0          0
Propagator Timings :  TotalTime  SetupTime   Presolve  Propagate    ResProp    SB-Prop
  dualfix          :       0.00       0.00       0.00       0.00       0.00       0.00
  genvbounds       :       0.40       0.00       0.00       0.40       0.00       0.00
  nlobbt           :       0.00       0.00       0.00       0.00       0.00       0.00
  obbt             :       2.50       0.00       0.00       2.50       0.00       0.00
  probing          :       0.00       0.00       0.00       0.00       0.00       0.00
  pseudoobj        :       0.21       0.00       0.00       0.21       0.00       0.00
  redcost          :       0.21       0.00       0.00       0.21       0.00       0.00
  rootredcost      :       0.08       0.00       0.00       0.08       0.00       0.00
  symmetry         :       0.02       0.00       0.00       0.02       0.00       0.00
  vbounds          :       0.09       0.00       0.00       0.09       0.00       0.00
Conflict Analysis  :       Time      Calls    Success    DomReds  Conflicts   Literals    Reconvs ReconvLits   Dualrays   Nonzeros   LP Iters   (pool size: [--,--])
  propagation      :       0.00          2          0          -          0        0.0          0        0.0          -          -          -
  infeasible LP    :       0.53       3402        234          -          1        1.0          0        0.0        221       12.8          0
  bound exceed. LP :       0.36       2198          0          -          0        0.0          0        0.0          0        0.0          0
  strong branching :       0.00          0          0          -          0        0.0          0        0.0          -          -          0
  pseudo solution  :       0.00          0          0          -          0        0.0          0        0.0          -          -          -
  applied globally :       0.00          -          -          0          1        1.0          -          -          8          -          -
  applied locally  :          -          -          -         13          0        0.0          -          -        213          -          -
Separators         :   ExecTime  SetupTime      Calls  RootCalls    Cutoffs    DomReds  FoundCuts ViaPoolAdd  DirectAdd    Applied ViaPoolApp  DirectApp      Conss
  cut pool         :       0.01          -      11887         42          -          -         24         13          -          -          -          -          -    (maximal pool size:         24)
  aggregation      :       0.06       0.00         34         27          0          0         13         10          0          4          4          0          0
  > cmir           :          -          -          -          -          -          -          -          6          0          3          3          0          -
  > flowcover      :          -          -          -          -          -          -          -          4          0          1          1          0          -
  > knapsackcover  :          -          -          -          -          -          -          -          0          0          0          0          0          -
  cgmip            :       0.00       0.00          0          0          0          0          0          0          0          0          0          0          0
  clique           :       0.00       0.00         27         27          0          0          0          0          0          0          0          0          0
  closecuts        :       0.00       0.00          0          0          0          0          0          0          0          0          0          0          0
  convexproj       :       0.00       0.00          0          0          0          0          0          0          0          0          0          0          0
  disjunctive      :       0.00       0.00          0          0          0          0          0          0          0          0          0          0          0
  eccuts           :       0.00       0.00          0          0          0          0          0          0          0          0          0          0          0
  gauge            :       0.00       0.00          0          0          0          0          0          0          0          0          0          0          0
  gomory           :       0.01       0.00         17         10          0          0          9          0          2          2          0          2          0
  > gomorymi       :          -          -          -          -          -          -          -          0          2          2          0          2          -
  > strongcg       :          -          -          -          -          -          -          -          0          0          0          0          0          -
  impliedbounds    :       0.00       0.00         34         27          0          0          1          0          0          0          0          0          0
  interminor       :       0.00       0.00          0          0          0          0          0          0          0          0          0          0          0
  intobj           :       0.00       0.00          0          0          0          0          0          0          0          0          0          0          0
  mcf              :       0.00       0.00          1          1          0          0          0          0          0          0          0          0          0
  minor            :       0.00       0.00          0          0          0          0          0          0          0          0          0          0          0
  mixing           :       0.07       0.00       3588         28          0          0          0          0          0          0          0          0          0
  oddcycle         :       0.00       0.00          0          0          0          0          0          0          0          0          0          0          0
  rapidlearning    :       0.00       0.00          0          0          0          0          0          0          0          0          0          0          0
  rlt              :       0.00       0.00         10         10          0          0          3          3          0          3          3          0          0
  zerohalf         :       0.01       0.00         27         20          0          0          0          0          0          0          0          0          0
Cutselectors       :   ExecTime  SetupTime      Calls  RootCalls   Selected     Forced   Filtered  RootSelec   RootForc   RootFilt 
  hybrid           :       1.42       0.00     105643         28     969124      43125     460215        903         11        401
Pricers            :   ExecTime  SetupTime      Calls       Vars
  problem variables:       0.00          -          0          0
Branching Rules    :   ExecTime  SetupTime   BranchLP  BranchExt   BranchPS    Cutoffs    DomReds       Cuts      Conss   Children
  allfullstrong    :       0.00       0.00          0          0          0          0          0          0          0          0
  cloud            :       0.00       0.00          0          0          0          0          0          0          0          0
  distribution     :       0.00       0.00          0          0          0          0          0          0          0          0
  fullstrong       :       0.00       0.00          0          0          0          0          0          0          0          0
  inference        :       0.00       0.00          0          0          0          0          0          0          0          0
  leastinf         :       0.00       0.00          0          0          0          0          0          0          0          0
  lookahead        :       0.00       0.00          0          0          0          0          0          0          0          0
  mostinf          :       0.00       0.00          0          0          0          0          0          0          0          0
  multaggr         :       0.00       0.00          0          0          0          0          0          0          0          0
  nodereopt        :       0.00       0.00          0          0          0          0          0          0          0          0
  pscost           :       0.00       0.00          0        106          0          0          0          0          0        212
  random           :       0.00       0.00          0          0          0          0          0          0          0          0
  relpscost        :       0.28       0.00         69          0          0          0        494          0          1        104
  vanillafullstrong:       0.00       0.00          0          0          0          0          0          0          0          0
Primal Heuristics  :   ExecTime  SetupTime      Calls      Found       Best
  LP solutions     :       0.00          -          -          0          0
  relax solutions  :       0.00          -          -          0          0
  pseudo solutions :       0.00          -          -          0          0
  strong branching :       0.01          -          -          0          0
  actconsdiving    :       0.00       0.00          0          0          0
  adaptivediving   :       0.03       0.00         73          0          0
  alns             :       0.09       0.00          7          0          0
  bound            :       0.00       0.00          0          0          0
  clique           :       0.02       0.00          1          0          0
  coefdiving       :       0.00       0.00          0          0          0
  completesol      :       0.00       0.00          0          0          0
  conflictdiving   :       0.02       0.00         94          0          0
  crossover        :       0.01       0.00          0          0          0
  dins             :       0.00       0.00          0          0          0
  distributiondivin:       0.13       0.00          0          0          0
  dps              :       0.00       0.00          0          0          0
  dualval          :       0.00       0.00          0          0          0
  farkasdiving     :       0.00       0.00          0          0          0
  feaspump         :       0.00       0.00          1          0          0
  fixandinfer      :       0.00       0.00          0          0          0
  fracdiving       :       0.01       0.00         95          0          0
  gins             :       0.01       0.00          0          0          0
  guideddiving     :       0.01       0.00         98          0          0
  indicator        :       0.07       0.00          0          0          0
  indicatordiving  :       0.00       0.00          0          0          0
  intdiving        :       0.00       0.00          0          0          0
  intshifting      :       0.00       0.00          2          0          0
  linesearchdiving :       0.01       0.00         97          0          0
  localbranching   :       0.00       0.00          0          0          0
  locks            :       0.01       0.00          1          0          0
  lpface           :       0.04       0.00          6          0          0
  mpec             :       0.95       0.00         11          0          0
  multistart       :       0.00       0.00          0          0          0
  mutation         :       0.00       0.00          0          0          0
  nlpdiving        :       0.11       0.00          1          0          0
  objpscostdiving  :       0.00       0.00          0          0          0
  octane           :       0.00       0.00          0          0          0
  ofins            :       0.01       0.00          0          0          0
  oneopt           :       0.03       0.00          3          0          0
  padm             :       0.00       0.00          0          0          0
  proximity        :       0.00       0.00          0          0          0
  pscostdiving     :       0.01       0.00          1          0          0
  randrounding     :       0.02       0.00         36          0          0
  rens             :       0.01       0.00          1          0          0
  reoptsols        :       0.00       0.00          0          0          0
  repair           :       0.00       0.00          0          0          0
  rins             :      16.43       0.00          9          0          0
  rootsoldiving    :       0.00       0.00          0          0          0
  rounding         :       0.09       0.00        168          0          0
  shiftandpropagate:       0.00       0.00          1          0          0
  shifting         :       0.02       0.00         56          0          0
  simplerounding   :       0.07       0.00          0          0          0
  subnlp           :       5.29       0.00         69         29          3
  trivial          :       0.00       0.00          2          0          0
  trivialnegation  :       0.00       0.00          0          0          0
  trustregion      :       0.00       0.00          0          0          0
  trysol           :       0.04       0.00          0          0          0
  twoopt           :       0.00       0.00          0          0          0
  undercover       :       0.01       0.00          1          0          0
  vbounds          :       0.00       0.00          0          0          0
  veclendiving     :       0.01       0.00         97          0          0
  zeroobj          :       0.00       0.00          0          0          0
  zirounding       :       0.01       0.00         52          0          0
  other solutions  :          -          -          -          0          -
Expressions        :   #IntEval  IntEvalTi   #RevProp  RevPropTi    DomReds    Cutoffs  #Estimate  EstimTime  Branching  #Simplify SimplifyTi Simplified
  exp              :     440775       0.09       7581       0.00       2540          0    1870613       0.25     813651         73       0.00          0
  pow              :    3525970       0.70       3023       0.00       2518          0   12599920       1.63     623606       1131       0.00         36
  prod             :    2433632       0.50    1115258       0.49     170165         90   47327470     482.12   18959570       2064       0.00        756
  sum              :    1404811       0.49     864847       0.54     233299         42    3047092       0.32          0       1809       0.01        663
  val              :          0       0.00          0       0.00          0          0          0       0.00          0          0       0.00          0
  var              :     636851       0.04          0       0.00          0          0          0       0.00          0       3489       0.00         23
  varidx           :          0       0.00          0       0.00          0          0          0       0.00          0          0       0.00          0
Nlhdlrs            :    Detects  DetectAll DetectTime   #IntEval  IntEvalTi   #RevProp  RevPropTi    DomReds    Cutoffs   #Enforce   EnfoTime       Cuts  Branching
  soc              :          0          0       0.00          0       0.00          0       0.00          0          0          0       0.00          0          0
  convex           :        144        144       0.00          0       0.00          0       0.00          0          0     345595       0.60     339827          0
  concave          :        126        126       0.00          0       0.00          0       0.00          0          0    5752263      10.91      95964          0
  signomial        :        216        216       0.00          0       0.00          0       0.00          0          0   61647199      10.69        143          0
  quotient         :         54         54       0.00          0       0.00          0       0.00          0          0     597471       0.87      36079          0
  quadratic        :         38        798       0.01     696975       1.52     242580       1.49      83299         82          0       0.00          0          0
  default          :        654       8614       0.00    7794469       2.28    1991065       2.61     408522        153   64844700     570.08    1518337          0
  bilinear         :        323        323       0.00    2040709       0.24    1113378       0.48        369          0   42113724       6.04       2168          0
  perspective      :          0          0       0.00          0       0.00          0       0.00          0          0          0       0.00          0          0
LP                 :       Time      Calls Iterations  Iter/call   Iter/sec  Time-0-It Calls-0-It    ItLimit
  primal LP        :     100.71      17862      71192     391.16     706.90      93.83      17680
  dual LP          :    2459.09     172864   19029428     115.60    7738.39      61.84       8249
  lex dual LP      :       0.00          0          0       0.00          -
  barrier LP       :       0.00          0          0       0.00          -       0.00          0
  resolve instable :     209.48       3376    2127267     630.11   10155.02
  diving/probing LP:       2.42        698      51663      74.02   21320.90
  strong branching :       0.16         22       1654      75.18   10208.24          -          -          4
    (at root node) :          -          2         82      41.00          -
  conflict analysis:       0.00          0          0       0.00          -
NLP relaxation     :
  solve time       :       0.11 (1 calls)
  convexity        :  nonconvex (19 linear rows, 0 convex ineq., 0 nonconvex ineq., 62 nonlinear eq. or two-sided ineq.)
NLP Solvers        :  #Problems  ProblemTi    #Solves  SolveTime      #Iter  Time/Iter      #Okay #TimeLimit #IterLimit #LObjLimit #Interrupt  #NumError #EvalError  #OutOfMem #LicenseEr #OtherTerm   #GlobOpt    #LocOpt  #Feasible #LocInfeas #GlobInfea #Unbounded   #Unknown
  ipopt            :         81       0.26         73       4.36       2620       0.00         61          0         12          0          0          0          0          0          0          0          0         34          1         26          0          0         12
B&B Tree           :
  number of runs   :          1
  nodes            :      20862 (14249 internal, 6613 leaves)
  feasible leaves  :          0
  infeas. leaves   :       4153
  objective leaves :       2459
  nodes (total)    :      20862 (14249 internal, 6613 leaves)
  nodes left       :       7638
  max depth        :         84
  max depth (total):         84
  backtracks       :       2617 (12.5%)
  early backtracks :          0 (0.0%)
  nodes exc. ref.  :          0 (0.0%)
  delayed cutoffs  :          0
  repropagations   :         39 (150 domain reductions, 0 cutoffs)
  avg switch length:       4.56
  switching time   :      75.15
Root Node          :
  First LP value   : -6.86842105263158e+01
  First LP Iters   :        327 (63917.12 Iter/sec)
  First LP Time    :       0.01
  Final Dual Bound : -6.86842105263158e+01
  Final Root Iters :       3323
  Root LP Estimate : -6.33626928123340e+01
Solution           :
  Solutions found  :         29 (3 improvements)
  First Solution   : -1.34060055590858e+01   (in run 1, after 1 nodes, 0.19 seconds, depth 0, found by <feaspump>)
  Gap First Sol.   :     412.34 %
  Gap Last Sol.    :     412.34 %
  Primal Bound     : -1.34060055590863e+01   (in run 1, after 2846 nodes, 447.39 seconds, depth 38, found by <subnlp>)
  Dual Bound       : -6.86842105263158e+01
  Gap              :     412.34 %
Integrals          :      Total       Avg%
  primal-dual      :  289738.09      80.48
  primal-ref       :          -          - (not evaluated)
  dual-ref         :          -          - (not evaluated)
